;; ===================== PROJECTED CANON (QE) =====================
;; Each clause below is entailed by Proj = ∃W.F over the canonical vocabulary.
;; Units appear first for clarity; OR-clauses (SAT-filtered) follow.
;; ==================================================================

;; Unit Bool constraints (entailed)
(assert (not patient_has_finding_of_cardiogenic_shock_now))
(assert (not patient_has_undergone_transfer_of_care_to_hospital_inthepast24hours))
